NAME : graph3
COMMENT : H Algorithm Solution by Oscar Riveros [http://twitter.com/maxtuno]
TYPE : TOUR
DIMENSION : 78
TOUR_SECTION
78
62
52
9
6
59
69
66
21
24
64
50
17
77
37
72
74
54
45
27
60
10
67
34
76
7
28
5
36
32
38
22
14
44
48
35
42
2
70
8
19
29
49
43
11
68
4
46
73
23
39
18
75
15
30
58
56
57
41
31
55
63
51
26
47
20
1
3
13
25
33
12
53
71
40
61
16
65
-1
EOF
